    26
 Wannier centres, written by Wannier90 on10Oct2025 at 10:42:10 
X         -1.23813983       5.76820887       5.13847073
X         -1.39639180       5.80990281       5.21701468
X         -1.13436344       5.70098321       5.19380076
X          2.29621063       4.25134438       5.21698181
X          2.07084585       4.07889467       5.19380972
X          2.18102065       4.13515825       5.13849736
X         -0.94284338       1.99063719       5.13846621
X         -0.93651770       2.11411263       5.19379922
X         -0.89982656       1.83273196       5.21702032
X          1.23814002       2.16111960       1.46386259
X          1.39639192       2.11942573       1.38531871
X          1.13436359       2.22834535       1.40853256
X          4.57078926       3.67798410       1.38535156
X          4.79615408       3.85043380       1.40852358
X          4.68597917       3.79417025       1.46383594
X          4.37634341      -0.00830481       1.46386711
X          4.37001762      -0.13178040       1.40853406
X          4.33332655       0.14960031       1.38531309
Cr         0.00000000       3.96466430       0.00680040
Cr         0.00000000       3.96466430       6.59553293
I         -1.20958771       5.84849436       5.03824057
I          2.23623855       4.07028296       5.03824057
I         -1.02665084       1.97521558       5.03824057
I          1.20958771       2.08083423       1.56409277
I          4.63076145       3.85904564       1.56409277
I          4.46015084       0.00711657       1.56409277
