    14
 Wannier centres, written by Wannier90 on10Oct2025 at 10:42:15 
X         -0.00511331       3.95034163       0.01779143
X         -0.00984818       3.97625313       0.01779019
X          0.01496165       3.96739803       0.01779183
X          0.00511208       3.97898582       6.58454130
X          0.00984784       3.95307766       6.58454190
X         -0.01495906       3.96192982       6.58454009
Cr         0.00000000       3.96466430       0.00680040
Cr         0.00000000       3.96466430       6.59553293
I         -1.20958771       5.84849436       5.03824057
I          2.23623855       4.07028296       5.03824057
I         -1.02665084       1.97521558       5.03824057
I          1.20958771       2.08083423       1.56409277
I          4.63076145       3.85904564       1.56409277
I          4.46015084       0.00711657       1.56409277
